data/solutions/planning/wellformed/moderate/highest_rank_objective/wellformed_moderate_instance44_cplex.sol
Elapsed time: 3.22
Nodes explored: 2023
Nodes left: -
Relative gap: -
Upper bound: 17340.0
Lower bound: -
C[0]=1156.0
C[1]=1156.0
C[2]=1156.0
C[3]=1156.0
y[0]=0
y[1]=2
y[2]=1
y[3]=0
y[4]=1
y[5]=0
y[6]=2
y[7]=2
y[8]=2
y[9]=1
y[10]=2
y[11]=2
y[12]=0
y[13]=2
y[14]=0
y[15]=0
y[16]=3
y[17]=3
y[18]=1
y[19]=0
y[20]=0
y[21]=3
y[22]=0
y[23]=2
y[24]=3
y[25]=1
y[26]=2
y[27]=0
y[28]=0
y[29]=1
y[30]=3
y[31]=2
y[32]=3
y[33]=1
y[34]=0
y[35]=0
y[36]=3
y[37]=3
y[38]=1
y[39]=3
y[40]=1
y[41]=1
y[42]=2
y[43]=1
y[44]=0
y[45]=0
y[46]=2
y[47]=0
y[48]=3
y[49]=1
